p cnf 75 192
-9 1 0
-9 2 0
9 -1 -2 0
-10 3 0
-10 4 0
10 -3 -4 0
-11 9 0
-11 10 0
11 -9 -10 0
-12 2 0
-12 5 0
12 -2 -5 0
-13 1 0
-13 4 0
13 -1 -4 0
-14 12 0
-14 13 0
14 -12 -13 0
-15 -12 0
-15 -13 0
15 12 13 0
-16 -14 0
-16 -15 0
16 14 15 0
-17 11 0
-17 16 0
17 -11 -16 0
-18 -11 0
-18 -16 0
18 11 16 0
-19 -17 0
-19 -18 0
19 17 18 0
-20 3 0
-20 6 0
20 -3 -6 0
-21 19 0
-21 20 0
21 -19 -20 0
-22 -14 0
-22 -17 0
22 14 17 0
-23 2 0
-23 7 0
23 -2 -7 0
-24 4 0
-24 5 0
24 -4 -5 0
-25 23 0
-25 24 0
25 -23 -24 0
-26 -23 0
-26 -24 0
26 23 24 0
-27 -25 0
-27 -26 0
27 25 26 0
-28 -22 0
-28 27 0
28 22 -27 0
-29 22 0
-29 -27 0
29 -22 27 0
-30 -28 0
-30 -29 0
30 28 29 0
-31 1 0
-31 6 0
31 -1 -6 0
-32 30 0
-32 31 0
32 -30 -31 0
-33 -30 0
-33 -31 0
33 30 31 0
-34 -32 0
-34 -33 0
34 32 33 0
-35 21 0
-35 34 0
35 -21 -34 0
-36 -21 0
-36 -34 0
36 21 34 0
-37 -35 0
-37 -36 0
37 35 36 0
-38 3 0
-38 8 0
38 -3 -8 0
-39 37 0
-39 38 0
39 -37 -38 0
-40 -37 0
-40 -38 0
40 37 38 0
-41 -39 0
-41 -40 0
41 39 40 0
-42 13 0
-42 20 0
42 -13 -20 0
-43 -13 0
-43 -20 0
43 13 20 0
-44 -42 0
-44 -43 0
44 42 43 0
-45 11 0
-45 44 0
45 -11 -44 0
-46 -11 0
-46 -44 0
46 11 44 0
-47 -45 0
-47 -46 0
47 45 46 0
-48 12 0
-48 47 0
48 -12 -47 0
-49 -42 0
-49 -45 0
49 42 45 0
-50 31 0
-50 38 0
50 -31 -38 0
-51 -31 0
-51 -38 0
51 31 38 0
-52 -50 0
-52 -51 0
52 50 51 0
-53 -49 0
-53 52 0
53 49 -52 0
-54 49 0
-54 -52 0
54 -49 52 0
-55 -53 0
-55 -54 0
55 53 54 0
-56 24 0
-56 55 0
56 -24 -55 0
-57 -24 0
-57 -55 0
57 24 55 0
-58 -56 0
-58 -57 0
58 56 57 0
-59 48 0
-59 58 0
59 -48 -58 0
-60 -48 0
-60 -58 0
60 48 58 0
-61 -59 0
-61 -60 0
61 59 60 0
-62 23 0
-62 61 0
62 -23 -61 0
-63 -23 0
-63 -61 0
63 23 61 0
-64 -62 0
-64 -63 0
64 62 63 0
-65 41 0
-65 -64 0
-66 -41 0
-66 64 0
67 65 66 0
-68 -19 0
-68 -20 0
68 19 20 0
-69 -21 0
-69 -68 0
69 21 68 0
-70 -12 0
-70 -47 0
70 12 47 0
-71 -48 0
-71 -70 0
71 48 70 0
-72 69 0
-72 -71 0
-73 -69 0
-73 71 0
74 72 73 0
75 -67 -74 0
-75 0
